
Gurobi 12.0.3 (linux64) logging started Thu Aug 21 03:11:48 2025

Set parameter LogFile to value "logs/instance-09.txt"
Gurobi Optimizer version 12.0.3 build v12.0.3rc0 (linux64 - "Ubuntu 24.04.3 LTS")

CPU model: Intel(R) Core(TM) i5-8250U CPU @ 1.60GHz, instruction set [SSE2|AVX|AVX2]
Thread count: 4 physical cores, 8 logical processors, using up to 8 threads

Non-default parameters:
TimeLimit  900

Optimize a model with 14950 rows, 5050 columns and 35635 nonzeros
Model fingerprint: 0x6825361d
Variable types: 0 continuous, 5050 integer (5050 binary)
Coefficient statistics:
  Matrix range     [1e+00, 1e+00]
  Objective range  [1e+00, 1e+01]
  Bounds range     [1e+00, 1e+00]
  RHS range        [1e+00, 1e+00]
Found heuristic solution: objective 221.0000000
Presolve removed 7775 rows and 248 columns
Presolve time: 0.13s
Presolved: 7175 rows, 4802 columns, 17426 nonzeros
Variable types: 0 continuous, 4802 integer (4802 binary)

Root relaxation: objective 6.499000e+03, 4666 iterations, 0.26 seconds (0.21 work units)

    Nodes    |    Current Node    |     Objective Bounds      |     Work
 Expl Unexpl |  Obj  Depth IntInf | Incumbent    BestBd   Gap | It/Node Time

     0     0 6499.00000    0 2476  221.00000 6499.00000  2841%     -    0s
H    0     0                     469.0000000 6499.00000  1286%     -    0s
H    0     0                    1405.0000000 6499.00000   363%     -    0s
H    0     0                    1487.0000000 6024.00000   305%     -    1s
     0     0 5526.50000    0 2400 1487.00000 5526.50000   272%     -    3s
     0     0 4408.12500    0 2717 1487.00000 4408.12500   196%     -    5s
     0     0 4203.41667    0 2904 1487.00000 4203.41667   183%     -    5s
     0     0 4194.00000    0 2929 1487.00000 4194.00000   182%     -    6s
     0     0 4191.75000    0 2928 1487.00000 4191.75000   182%     -    6s
     0     0 4191.25000    0 2915 1487.00000 4191.25000   182%     -    6s
     0     0 4191.25000    0 2918 1487.00000 4191.25000   182%     -    6s
H    0     0                    1554.0000000 3658.85729   135%     -   18s
H    0     0                    1611.0000000 3658.85729   127%     -   18s
H    0     0                    1656.0000000 3658.85729   121%     -   18s
H    0     0                    1722.0000000 3658.85729   112%     -   18s
H    0     0                    1731.0000000 3658.85729   111%     -   18s
     0     0 3658.85729    0 3193 1731.00000 3658.85729   111%     -   19s
H    0     0                    1746.0000000 3102.23784  77.7%     -   45s
H    0     0                    1862.0000000 3102.23784  66.6%     -   45s
H    0     0                    1870.0000000 3102.23784  65.9%     -   45s
H    0     0                    1878.0000000 3102.23784  65.2%     -   45s
H    0     0                    1905.0000000 3102.23784  62.8%     -   45s
H    0     0                    1911.0000000 3102.23784  62.3%     -   45s
H    0     0                    1937.0000000 3102.23784  60.2%     -   45s
H    0     0                    1956.0000000 3102.23784  58.6%     -   45s
H    0     0                    1959.0000000 3102.23784  58.4%     -   45s
H    0     0                    2008.0000000 3102.23784  54.5%     -   45s
     0     0 3102.23784    0 3877 2008.00000 3102.23784  54.5%     -   45s
     0     0 2932.45683    0 4404 2008.00000 2932.45683  46.0%     -   77s
     0     0 2852.80463    0 4460 2008.00000 2852.80463  42.1%     -  103s
     0     0 2836.47312    0 4460 2008.00000 2836.47312  41.3%     -  115s
     0     0 2830.78102    0 4479 2008.00000 2830.78102  41.0%     -  121s
     0     0 2828.91889    0 4491 2008.00000 2828.91889  40.9%     -  125s
     0     0 2694.61370    0 4537 2008.00000 2694.61370  34.2%     -  174s
     0     0 2635.04468    0 4562 2008.00000 2635.04468  31.2%     -  211s
     0     0 2612.15213    0 4577 2008.00000 2612.15213  30.1%     -  236s
     0     0 2599.63632    0 4585 2008.00000 2599.63632  29.5%     -  255s
     0     0 2594.10893    0 4599 2008.00000 2594.10893  29.2%     -  267s
     0     0 2566.36298    0 4595 2008.00000 2566.36298  27.8%     -  302s
     0     0 2547.51288    0 4609 2008.00000 2547.51288  26.9%     -  333s
     0     0 2538.65958    0 4599 2008.00000 2538.65958  26.4%     -  355s
     0     0 2533.26855    0 4607 2008.00000 2533.26855  26.2%     -  373s
     0     0 2519.61350    0 4579 2008.00000 2519.61350  25.5%     -  405s
     0     0 2519.61350    0 4567 2008.00000 2519.61350  25.5%     -  406s
     0     2 2519.61350    0 4567 2008.00000 2519.61350  25.5%     -  431s
     1     4 2509.15585    1 4539 2008.00000 2519.60807  25.5%   975  446s
     3     8 2426.57605    2 4494 2008.00000 2509.14201  25.0%  3447  548s
     7    12 2378.08493    3 4397 2008.00000 2459.38001  22.5%  9127  597s
    11    15 2362.32067    4 4306 2008.00000 2459.36740  22.5% 14749  626s
    14    21 2335.64007    5 4206 2008.00000 2459.36740  22.5% 14480  656s
    20    24 2304.32699    7 4100 2008.00000 2459.36740  22.5% 12612  691s
    23    30 2270.08689    7 4011 2008.00000 2459.36740  22.5% 12894  721s
    29    34 2230.02583    8 3894 2008.00000 2459.36740  22.5% 12005  757s
    33    38 2199.90228    9 3795 2008.00000 2459.36740  22.5% 12385  792s
    37    44 2177.96253   10 3713 2008.00000 2459.36740  22.5% 12374  828s
    43    53 2160.71538   11 3646 2008.00000 2459.36740  22.5% 12213  859s
    52    64 2126.79741   13 3633 2008.00000 2459.36740  22.5% 11987  889s
    63    66 2128.11655   19 3721 2008.00000 2459.36740  22.5% 11195  900s

Cutting planes:
  Gomory: 1
  Cover: 1
  Dual implied bound: 27
  MIR: 16
  Zero half: 147
  RLT: 4388
  BQP: 3248

Explored 65 nodes (1089525 simplex iterations) in 900.00 seconds (806.21 work units)
Thread count was 8 (of 8 available processors)

Solution count 10: 2008 1959 1956 ... 1746

Time limit reached
Best objective 2.008000000000e+03, best bound 2.459000000000e+03, gap 22.4602%

Gurobi 12.0.3 (linux64) logging started Thu Aug 21 10:54:19 2025

Set parameter LogFile to value "logs/instance-09.txt"
Gurobi Optimizer version 12.0.3 build v12.0.3rc0 (linux64 - "Ubuntu 24.04.3 LTS")

CPU model: Intel(R) Core(TM) i5-8250U CPU @ 1.60GHz, instruction set [SSE2|AVX|AVX2]
Thread count: 4 physical cores, 8 logical processors, using up to 8 threads

Non-default parameters:
TimeLimit  600

Optimize a model with 14950 rows, 5050 columns and 35635 nonzeros
Model fingerprint: 0x6825361d
Variable types: 0 continuous, 5050 integer (5050 binary)
Coefficient statistics:
  Matrix range     [1e+00, 1e+00]
  Objective range  [1e+00, 1e+01]
  Bounds range     [1e+00, 1e+00]
  RHS range        [1e+00, 1e+00]
Found heuristic solution: objective 221.0000000
Presolve removed 7775 rows and 248 columns
Presolve time: 0.16s
Presolved: 7175 rows, 4802 columns, 17426 nonzeros
Variable types: 0 continuous, 4802 integer (4802 binary)

Root relaxation: objective 6.499000e+03, 4666 iterations, 0.52 seconds (0.21 work units)

    Nodes    |    Current Node    |     Objective Bounds      |     Work
 Expl Unexpl |  Obj  Depth IntInf | Incumbent    BestBd   Gap | It/Node Time

     0     0 6499.00000    0 2476  221.00000 6499.00000  2841%     -    0s
H    0     0                     469.0000000 6499.00000  1286%     -    0s
H    0     0                    1405.0000000 6499.00000   363%     -    0s
H    0     0                    1487.0000000 6024.00000   305%     -    2s
     0     0 5526.50000    0 2400 1487.00000 5526.50000   272%     -    3s
     0     0 4408.12500    0 2717 1487.00000 4408.12500   196%     -    6s
     0     0 4203.41667    0 2904 1487.00000 4203.41667   183%     -    7s
     0     0 4194.00000    0 2929 1487.00000 4194.00000   182%     -    7s
     0     0 4191.75000    0 2928 1487.00000 4191.75000   182%     -    7s
     0     0 4191.25000    0 2915 1487.00000 4191.25000   182%     -    7s
     0     0 4191.25000    0 2918 1487.00000 4191.25000   182%     -    7s
H    0     0                    1554.0000000 3658.85729   135%     -   20s
H    0     0                    1611.0000000 3658.85729   127%     -   20s
H    0     0                    1656.0000000 3658.85729   121%     -   20s
H    0     0                    1722.0000000 3658.85729   112%     -   20s
H    0     0                    1731.0000000 3658.85729   111%     -   20s
     0     0 3658.85729    0 3193 1731.00000 3658.85729   111%     -   21s
H    0     0                    1746.0000000 3102.23784  77.7%     -   47s
H    0     0                    1862.0000000 3102.23784  66.6%     -   47s
H    0     0                    1870.0000000 3102.23784  65.9%     -   47s
H    0     0                    1878.0000000 3102.23784  65.2%     -   47s
H    0     0                    1905.0000000 3102.23784  62.8%     -   47s
H    0     0                    1911.0000000 3102.23784  62.3%     -   47s
H    0     0                    1937.0000000 3102.23784  60.2%     -   47s
H    0     0                    1956.0000000 3102.23784  58.6%     -   47s
H    0     0                    1959.0000000 3102.23784  58.4%     -   47s
H    0     0                    2008.0000000 3102.23784  54.5%     -   47s
     0     0 3102.23784    0 3877 2008.00000 3102.23784  54.5%     -   47s
     0     0 2932.45683    0 4404 2008.00000 2932.45683  46.0%     -   81s
     0     0 2852.80463    0 4460 2008.00000 2852.80463  42.1%     -  108s
     0     0 2836.47312    0 4460 2008.00000 2836.47312  41.3%     -  120s
     0     0 2830.78102    0 4479 2008.00000 2830.78102  41.0%     -  126s
     0     0 2828.91889    0 4491 2008.00000 2828.91889  40.9%     -  129s
     0     0 2694.61370    0 4537 2008.00000 2694.61370  34.2%     -  179s
     0     0 2635.04468    0 4562 2008.00000 2635.04468  31.2%     -  217s
     0     0 2612.15213    0 4577 2008.00000 2612.15213  30.1%     -  243s
     0     0 2599.63632    0 4585 2008.00000 2599.63632  29.5%     -  263s
     0     0 2594.10893    0 4599 2008.00000 2594.10893  29.2%     -  275s
     0     0 2566.36298    0 4595 2008.00000 2566.36298  27.8%     -  313s
     0     0 2547.51288    0 4609 2008.00000 2547.51288  26.9%     -  347s
     0     0 2538.65958    0 4599 2008.00000 2538.65958  26.4%     -  369s
     0     0 2533.26855    0 4607 2008.00000 2533.26855  26.2%     -  388s
     0     0 2519.61350    0 4579 2008.00000 2519.61350  25.5%     -  421s
     0     0 2519.61350    0 4567 2008.00000 2519.61350  25.5%     -  422s
     0     2 2519.61350    0 4567 2008.00000 2519.61350  25.5%     -  448s
     1     4 2509.15585    1 4539 2008.00000 2519.60807  25.5%   975  462s
     3     8 2426.57605    2 4494 2008.00000 2509.14201  25.0%  3447  564s

Cutting planes:
  Gomory: 1
  Cover: 1
  Dual implied bound: 27
  MIR: 16
  Zero half: 147
  RLT: 4388
  BQP: 3248

Explored 7 nodes (415086 simplex iterations) in 600.00 seconds (453.36 work units)
Thread count was 8 (of 8 available processors)

Solution count 10: 2008 1959 1956 ... 1746

Time limit reached
Best objective 2.008000000000e+03, best bound 2.459000000000e+03, gap 22.4602%
